p wcnf 183 92 93 
1 99 -114 0 
1 -104 -39 0 
1 118 -5 0 
1 82 31 0 
1 -11 54 0 
1 -41 -102 0 
1 133 65 0 
1 -105 -179 0 
1 -56 77 0 
1 114 -18 0 
1 -64 -37 0 
1 -4 77 0 
1 -20 34 0 
1 44 34 0 
1 -36 -40 0 
1 25 -57 0 
1 172 -158 0 
1 69 -183 0 
1 100 -92 0 
1 46 179 0 
1 -37 -183 0 
1 -169 181 0 
1 -176 -77 0 
1 -64 -43 0 
1 99 4 0 
1 137 87 0 
1 158 -15 0 
1 -73 -173 0 
1 -148 -28 0 
1 145 -60 0 
1 -110 -111 0 
1 -40 -126 0 
1 7 172 0 
1 33 -89 0 
1 89 117 0 
1 -179 49 0 
1 18 178 0 
1 50 -170 0 
1 46 -127 0 
1 168 75 0 
1 86 -21 0 
1 50 -5 0 
1 9 -122 0 
1 -56 -176 0 
1 -41 -120 0 
1 109 111 0 
1 -147 110 0 
1 -91 -95 0 
1 -71 28 0 
1 80 56 0 
1 -171 -23 0 
1 103 -115 0 
1 -178 -66 0 
1 -96 -14 0 
1 66 44 0 
1 8 -33 0 
1 -88 57 0 
1 -134 82 0 
1 97 -72 0 
1 41 -162 0 
1 -1 -77 0 
1 170 -117 0 
1 -11 99 0 
1 -177 -178 0 
1 33 20 0 
1 72 39 0 
1 -46 -109 0 
1 105 1 0 
1 8 -98 0 
1 -43 -131 0 
1 -119 11 0 
1 -110 -143 0 
1 146 37 0 
1 166 -23 0 
1 -86 -160 0 
1 -95 163 0 
1 -118 9 0 
1 111 43 0 
1 65 153 0 
1 -29 169 0 
1 160 -66 0 
1 151 -91 0 
1 88 -152 0 
1 19 55 0 
1 -149 -129 0 
1 132 16 0 
1 101 150 0 
1 59 -68 0 
1 -97 153 0 
1 89 -134 0 
1 13 135 0 
1 28 -18 0 
